100
100
99
98
97
97
96
94
94
94
93
90
84
82
81
78
76
76
75
75
73
70
70
69
69
66
66
65
65
65
63
61
60
59
59
59
58
58
56
55
54
54
53
53
50
50
50
48
48
47
46
45
45
45
45
41
41
40
39
39
36
36
35
35
34
33
33
31
30
29
28
27
26
26
24
24
19
19
19
18
18
18
18
16
14
14
13
12
11
11
10
10
10
7
7
6
6
6
4
3
1
1
